(set-logic QF_S)
(declare-fun var0 () Int)
(declare-fun var1 () String)
(declare-fun var2 () String)
(declare-fun var3 () String)
(declare-fun var4 () Int)
(declare-fun var5 () Int)
(declare-fun var6 () Int)
(declare-fun var7 () String)
(assert (not (<= var0 106)))
(assert (str.contains (str.replace var1 "(E0~fbH]" var2) (str.substr var3 94 var4)))
(assert (< var5 var6))
(assert (str.suffixof (str.at var7 var6) (str.replace var2 var3 var1)))
(check-sat)